35 
300 
4.6 7.1 0 0
5 5.6 0 -25
5.7 11.4 -20 -82
4.4 12.3 20 -14
2.8 14.3 30 -12
3.2 10.3 -15 -109
3.5 9.8 15 -15
4.4 8.4 -10 -131
7.8 11 -20 -67
8.8 9.8 -20 -105
7.7 8.2 20 -10
6.3 7.9 -15 -97
5.4 8.2 10 -27
5.8 6.8 -10 -71
6.7 5.8 25 -27
13.8 13.1 -40 -121
14.1 14.2 -40 -121
11.2 13.6 -30 -128
9.7 16.4 30 -19
9.5 18.8 -50 -94
4.7 16.8 -30 -66
